
Gurobi 6.5.2 (linux64) logging started Sun Sep 18 18:40:57 2016


Gurobi 6.5.2 (linux64) logging started Sun Sep 18 18:40:57 2016

Optimize a model with 101 rows, 418 columns and 839 nonzeros
Coefficient statistics:
  Matrix range    [1e+00, 2e+00]
  Objective range [1e+00, 1e+02]
  Bounds range    [1e+00, 1e+00]
  RHS range       [1e+00, 1e+00]
Presolve removed 50 rows and 48 columns
Presolve time: 0.00s
Presolved: 51 rows, 370 columns, 740 nonzeros
Variable types: 0 continuous, 370 integer (370 binary)

Root relaxation: objective 1.092500e+03, 62 iterations, 0.00 seconds

    Nodes    |    Current Node    |     Objective Bounds      |     Work
 Expl Unexpl |  Obj  Depth IntInf | Incumbent    BestBd   Gap | It/Node Time

     0     0 1092.50000    0   10          - 1092.50000      -     -    0s
     0     0 1107.00000    0   15          - 1107.00000      -     -    0s
     0     0 1108.25000    0    8          - 1108.25000      -     -    0s
     0     0 1108.25000    0    8          - 1108.25000      -     -    0s
     0     2 1108.25000    0    8          - 1108.25000      -     -    0s
*  127    63              30    1191.0000000 1109.80000  6.82%   5.4    0s
*  191    82              26    1179.0000000 1109.80000  5.87%   5.4    0s
*  193    80              27    1174.0000000 1109.80000  5.47%   5.4    0s
H  470   118                    1164.0000000 1112.00000  4.47%   5.1    0s
*  766   325              19    1150.0000000 1115.00000  3.04%   4.8    0s
*  898   135              11    1128.0000000 1115.00000  1.15%   4.7    0s
* 1161    54              11    1126.0000000 1117.00000  0.80%   4.5    0s
* 1183    46              10    1125.0000000 1117.00000  0.71%   4.5    0s
* 1233     2              15    1124.0000000 1117.00000  0.62%   4.4    0s
* 1259     4              16    1122.0000000 1117.00000  0.45%   4.3    0s
* 1282     0              13    1121.0000000 1117.00000  0.36%   4.3    0s

Cutting planes:
  Gomory: 2
  Cover: 2
  Zero half: 1
  Lazy constraints: 203

Explored 1293 nodes (5606 simplex iterations) in 0.18 seconds
Thread count was 8 (of 8 available processors)

Optimal solution found (tolerance 1.00e-04)
Best objective 1.121000000000e+03, best bound 1.121000000000e+03, gap 0.0%
